p cnf 216 1116
1 2 3 4 5 6 0
7 8 9 10 11 12 0
13 14 15 16 17 18 0
19 20 21 22 23 24 0
25 26 27 28 29 30 0
31 32 33 34 35 36 0
37 38 39 40 41 42 0
43 44 45 46 47 48 0
49 50 51 52 53 54 0
55 56 57 58 59 60 0
61 62 63 64 65 66 0
67 68 69 70 71 72 0
73 74 75 76 77 78 0
79 80 81 82 83 84 0
85 86 87 88 89 90 0
91 92 93 94 95 96 0
97 98 99 100 101 102 0
103 104 105 106 107 108 0
109 110 111 112 113 114 0
115 116 117 118 119 120 0
121 122 123 124 125 126 0
127 128 129 130 131 132 0
133 134 135 136 137 138 0
139 140 141 142 143 144 0
145 146 147 148 149 150 0
151 152 153 154 155 156 0
157 158 159 160 161 162 0
163 164 165 166 167 168 0
169 170 171 172 173 174 0
175 176 177 178 179 180 0
181 182 183 184 185 186 0
187 188 189 190 191 192 0
193 194 195 196 197 198 0
199 200 201 202 203 204 0
205 206 207 208 209 210 0
211 212 213 214 215 216 0
-1 -7 0
-1 -13 0
-1 -19 0
-1 -25 0
-1 -31 0
-7 -13 0
-7 -19 0
-7 -25 0
-7 -31 0
-13 -19 0
-13 -25 0
-13 -31 0
-19 -25 0
-19 -31 0
-25 -31 0
-2 -8 0
-2 -14 0
-2 -20 0
-2 -26 0
-2 -32 0
-8 -14 0
-8 -20 0
-8 -26 0
-8 -32 0
-14 -20 0
-14 -26 0
-14 -32 0
-20 -26 0
-20 -32 0
-26 -32 0
-3 -9 0
-3 -15 0
-3 -21 0
-3 -27 0
-3 -33 0
-9 -15 0
-9 -21 0
-9 -27 0
-9 -33 0
-15 -21 0
-15 -27 0
-15 -33 0
-21 -27 0
-21 -33 0
-27 -33 0
-4 -10 0
-4 -16 0
-4 -22 0
-4 -28 0
-4 -34 0
-10 -16 0
-10 -22 0
-10 -28 0
-10 -34 0
-16 -22 0
-16 -28 0
-16 -34 0
-22 -28 0
-22 -34 0
-28 -34 0
-5 -11 0
-5 -17 0
-5 -23 0
-5 -29 0
-5 -35 0
-11 -17 0
-11 -23 0
-11 -29 0
-11 -35 0
-17 -23 0
-17 -29 0
-17 -35 0
-23 -29 0
-23 -35 0
-29 -35 0
-6 -12 0
-6 -18 0
-6 -24 0
-6 -30 0
-6 -36 0
-12 -18 0
-12 -24 0
-12 -30 0
-12 -36 0
-18 -24 0
-18 -30 0
-18 -36 0
-24 -30 0
-24 -36 0
-30 -36 0
-37 -43 0
-37 -49 0
-37 -55 0
-37 -61 0
-37 -67 0
-43 -49 0
-43 -55 0
-43 -61 0
-43 -67 0
-49 -55 0
-49 -61 0
-49 -67 0
-55 -61 0
-55 -67 0
-61 -67 0
-38 -44 0
-38 -50 0
-38 -56 0
-38 -62 0
-38 -68 0
-44 -50 0
-44 -56 0
-44 -62 0
-44 -68 0
-50 -56 0
-50 -62 0
-50 -68 0
-56 -62 0
-56 -68 0
-62 -68 0
-39 -45 0
-39 -51 0
-39 -57 0
-39 -63 0
-39 -69 0
-45 -51 0
-45 -57 0
-45 -63 0
-45 -69 0
-51 -57 0
-51 -63 0
-51 -69 0
-57 -63 0
-57 -69 0
-63 -69 0
-40 -46 0
-40 -52 0
-40 -58 0
-40 -64 0
-40 -70 0
-46 -52 0
-46 -58 0
-46 -64 0
-46 -70 0
-52 -58 0
-52 -64 0
-52 -70 0
-58 -64 0
-58 -70 0
-64 -70 0
-41 -47 0
-41 -53 0
-41 -59 0
-41 -65 0
-41 -71 0
-47 -53 0
-47 -59 0
-47 -65 0
-47 -71 0
-53 -59 0
-53 -65 0
-53 -71 0
-59 -65 0
-59 -71 0
-65 -71 0
-42 -48 0
-42 -54 0
-42 -60 0
-42 -66 0
-42 -72 0
-48 -54 0
-48 -60 0
-48 -66 0
-48 -72 0
-54 -60 0
-54 -66 0
-54 -72 0
-60 -66 0
-60 -72 0
-66 -72 0
-73 -79 0
-73 -85 0
-73 -91 0
-73 -97 0
-73 -103 0
-79 -85 0
-79 -91 0
-79 -97 0
-79 -103 0
-85 -91 0
-85 -97 0
-85 -103 0
-91 -97 0
-91 -103 0
-97 -103 0
-74 -80 0
-74 -86 0
-74 -92 0
-74 -98 0
-74 -104 0
-80 -86 0
-80 -92 0
-80 -98 0
-80 -104 0
-86 -92 0
-86 -98 0
-86 -104 0
-92 -98 0
-92 -104 0
-98 -104 0
-75 -81 0
-75 -87 0
-75 -93 0
-75 -99 0
-75 -105 0
-81 -87 0
-81 -93 0
-81 -99 0
-81 -105 0
-87 -93 0
-87 -99 0
-87 -105 0
-93 -99 0
-93 -105 0
-99 -105 0
-76 -82 0
-76 -88 0
-76 -94 0
-76 -100 0
-76 -106 0
-82 -88 0
-82 -94 0
-82 -100 0
-82 -106 0
-88 -94 0
-88 -100 0
-88 -106 0
-94 -100 0
-94 -106 0
-100 -106 0
-77 -83 0
-77 -89 0
-77 -95 0
-77 -101 0
-77 -107 0
-83 -89 0
-83 -95 0
-83 -101 0
-83 -107 0
-89 -95 0
-89 -101 0
-89 -107 0
-95 -101 0
-95 -107 0
-101 -107 0
-78 -84 0
-78 -90 0
-78 -96 0
-78 -102 0
-78 -108 0
-84 -90 0
-84 -96 0
-84 -102 0
-84 -108 0
-90 -96 0
-90 -102 0
-90 -108 0
-96 -102 0
-96 -108 0
-102 -108 0
-109 -115 0
-109 -121 0
-109 -127 0
-109 -133 0
-109 -139 0
-115 -121 0
-115 -127 0
-115 -133 0
-115 -139 0
-121 -127 0
-121 -133 0
-121 -139 0
-127 -133 0
-127 -139 0
-133 -139 0
-110 -116 0
-110 -122 0
-110 -128 0
-110 -134 0
-110 -140 0
-116 -122 0
-116 -128 0
-116 -134 0
-116 -140 0
-122 -128 0
-122 -134 0
-122 -140 0
-128 -134 0
-128 -140 0
-134 -140 0
-111 -117 0
-111 -123 0
-111 -129 0
-111 -135 0
-111 -141 0
-117 -123 0
-117 -129 0
-117 -135 0
-117 -141 0
-123 -129 0
-123 -135 0
-123 -141 0
-129 -135 0
-129 -141 0
-135 -141 0
-112 -118 0
-112 -124 0
-112 -130 0
-112 -136 0
-112 -142 0
-118 -124 0
-118 -130 0
-118 -136 0
-118 -142 0
-124 -130 0
-124 -136 0
-124 -142 0
-130 -136 0
-130 -142 0
-136 -142 0
-113 -119 0
-113 -125 0
-113 -131 0
-113 -137 0
-113 -143 0
-119 -125 0
-119 -131 0
-119 -137 0
-119 -143 0
-125 -131 0
-125 -137 0
-125 -143 0
-131 -137 0
-131 -143 0
-137 -143 0
-114 -120 0
-114 -126 0
-114 -132 0
-114 -138 0
-114 -144 0
-120 -126 0
-120 -132 0
-120 -138 0
-120 -144 0
-126 -132 0
-126 -138 0
-126 -144 0
-132 -138 0
-132 -144 0
-138 -144 0
-145 -151 0
-145 -157 0
-145 -163 0
-145 -169 0
-145 -175 0
-151 -157 0
-151 -163 0
-151 -169 0
-151 -175 0
-157 -163 0
-157 -169 0
-157 -175 0
-163 -169 0
-163 -175 0
-169 -175 0
-146 -152 0
-146 -158 0
-146 -164 0
-146 -170 0
-146 -176 0
-152 -158 0
-152 -164 0
-152 -170 0
-152 -176 0
-158 -164 0
-158 -170 0
-158 -176 0
-164 -170 0
-164 -176 0
-170 -176 0
-147 -153 0
-147 -159 0
-147 -165 0
-147 -171 0
-147 -177 0
-153 -159 0
-153 -165 0
-153 -171 0
-153 -177 0
-159 -165 0
-159 -171 0
-159 -177 0
-165 -171 0
-165 -177 0
-171 -177 0
-148 -154 0
-148 -160 0
-148 -166 0
-148 -172 0
-148 -178 0
-154 -160 0
-154 -166 0
-154 -172 0
-154 -178 0
-160 -166 0
-160 -172 0
-160 -178 0
-166 -172 0
-166 -178 0
-172 -178 0
-149 -155 0
-149 -161 0
-149 -167 0
-149 -173 0
-149 -179 0
-155 -161 0
-155 -167 0
-155 -173 0
-155 -179 0
-161 -167 0
-161 -173 0
-161 -179 0
-167 -173 0
-167 -179 0
-173 -179 0
-150 -156 0
-150 -162 0
-150 -168 0
-150 -174 0
-150 -180 0
-156 -162 0
-156 -168 0
-156 -174 0
-156 -180 0
-162 -168 0
-162 -174 0
-162 -180 0
-168 -174 0
-168 -180 0
-174 -180 0
-181 -187 0
-181 -193 0
-181 -199 0
-181 -205 0
-181 -211 0
-187 -193 0
-187 -199 0
-187 -205 0
-187 -211 0
-193 -199 0
-193 -205 0
-193 -211 0
-199 -205 0
-199 -211 0
-205 -211 0
-182 -188 0
-182 -194 0
-182 -200 0
-182 -206 0
-182 -212 0
-188 -194 0
-188 -200 0
-188 -206 0
-188 -212 0
-194 -200 0
-194 -206 0
-194 -212 0
-200 -206 0
-200 -212 0
-206 -212 0
-183 -189 0
-183 -195 0
-183 -201 0
-183 -207 0
-183 -213 0
-189 -195 0
-189 -201 0
-189 -207 0
-189 -213 0
-195 -201 0
-195 -207 0
-195 -213 0
-201 -207 0
-201 -213 0
-207 -213 0
-184 -190 0
-184 -196 0
-184 -202 0
-184 -208 0
-184 -214 0
-190 -196 0
-190 -202 0
-190 -208 0
-190 -214 0
-196 -202 0
-196 -208 0
-196 -214 0
-202 -208 0
-202 -214 0
-208 -214 0
-185 -191 0
-185 -197 0
-185 -203 0
-185 -209 0
-185 -215 0
-191 -197 0
-191 -203 0
-191 -209 0
-191 -215 0
-197 -203 0
-197 -209 0
-197 -215 0
-203 -209 0
-203 -215 0
-209 -215 0
-186 -192 0
-186 -198 0
-186 -204 0
-186 -210 0
-186 -216 0
-192 -198 0
-192 -204 0
-192 -210 0
-192 -216 0
-198 -204 0
-198 -210 0
-198 -216 0
-204 -210 0
-204 -216 0
-210 -216 0
-1 -37 0
-1 -73 0
-1 -109 0
-1 -145 0
-1 -181 0
-37 -73 0
-37 -109 0
-37 -145 0
-37 -181 0
-73 -109 0
-73 -145 0
-73 -181 0
-109 -145 0
-109 -181 0
-145 -181 0
-2 -38 0
-2 -74 0
-2 -110 0
-2 -146 0
-2 -182 0
-38 -74 0
-38 -110 0
-38 -146 0
-38 -182 0
-74 -110 0
-74 -146 0
-74 -182 0
-110 -146 0
-110 -182 0
-146 -182 0
-3 -39 0
-3 -75 0
-3 -111 0
-3 -147 0
-3 -183 0
-39 -75 0
-39 -111 0
-39 -147 0
-39 -183 0
-75 -111 0
-75 -147 0
-75 -183 0
-111 -147 0
-111 -183 0
-147 -183 0
-4 -40 0
-4 -76 0
-4 -112 0
-4 -148 0
-4 -184 0
-40 -76 0
-40 -112 0
-40 -148 0
-40 -184 0
-76 -112 0
-76 -148 0
-76 -184 0
-112 -148 0
-112 -184 0
-148 -184 0
-5 -41 0
-5 -77 0
-5 -113 0
-5 -149 0
-5 -185 0
-41 -77 0
-41 -113 0
-41 -149 0
-41 -185 0
-77 -113 0
-77 -149 0
-77 -185 0
-113 -149 0
-113 -185 0
-149 -185 0
-6 -42 0
-6 -78 0
-6 -114 0
-6 -150 0
-6 -186 0
-42 -78 0
-42 -114 0
-42 -150 0
-42 -186 0
-78 -114 0
-78 -150 0
-78 -186 0
-114 -150 0
-114 -186 0
-150 -186 0
-7 -43 0
-7 -79 0
-7 -115 0
-7 -151 0
-7 -187 0
-43 -79 0
-43 -115 0
-43 -151 0
-43 -187 0
-79 -115 0
-79 -151 0
-79 -187 0
-115 -151 0
-115 -187 0
-151 -187 0
-8 -44 0
-8 -80 0
-8 -116 0
-8 -152 0
-8 -188 0
-44 -80 0
-44 -116 0
-44 -152 0
-44 -188 0
-80 -116 0
-80 -152 0
-80 -188 0
-116 -152 0
-116 -188 0
-152 -188 0
-9 -45 0
-9 -81 0
-9 -117 0
-9 -153 0
-9 -189 0
-45 -81 0
-45 -117 0
-45 -153 0
-45 -189 0
-81 -117 0
-81 -153 0
-81 -189 0
-117 -153 0
-117 -189 0
-153 -189 0
-10 -46 0
-10 -82 0
-10 -118 0
-10 -154 0
-10 -190 0
-46 -82 0
-46 -118 0
-46 -154 0
-46 -190 0
-82 -118 0
-82 -154 0
-82 -190 0
-118 -154 0
-118 -190 0
-154 -190 0
-11 -47 0
-11 -83 0
-11 -119 0
-11 -155 0
-11 -191 0
-47 -83 0
-47 -119 0
-47 -155 0
-47 -191 0
-83 -119 0
-83 -155 0
-83 -191 0
-119 -155 0
-119 -191 0
-155 -191 0
-12 -48 0
-12 -84 0
-12 -120 0
-12 -156 0
-12 -192 0
-48 -84 0
-48 -120 0
-48 -156 0
-48 -192 0
-84 -120 0
-84 -156 0
-84 -192 0
-120 -156 0
-120 -192 0
-156 -192 0
-13 -49 0
-13 -85 0
-13 -121 0
-13 -157 0
-13 -193 0
-49 -85 0
-49 -121 0
-49 -157 0
-49 -193 0
-85 -121 0
-85 -157 0
-85 -193 0
-121 -157 0
-121 -193 0
-157 -193 0
-14 -50 0
-14 -86 0
-14 -122 0
-14 -158 0
-14 -194 0
-50 -86 0
-50 -122 0
-50 -158 0
-50 -194 0
-86 -122 0
-86 -158 0
-86 -194 0
-122 -158 0
-122 -194 0
-158 -194 0
-15 -51 0
-15 -87 0
-15 -123 0
-15 -159 0
-15 -195 0
-51 -87 0
-51 -123 0
-51 -159 0
-51 -195 0
-87 -123 0
-87 -159 0
-87 -195 0
-123 -159 0
-123 -195 0
-159 -195 0
-16 -52 0
-16 -88 0
-16 -124 0
-16 -160 0
-16 -196 0
-52 -88 0
-52 -124 0
-52 -160 0
-52 -196 0
-88 -124 0
-88 -160 0
-88 -196 0
-124 -160 0
-124 -196 0
-160 -196 0
-17 -53 0
-17 -89 0
-17 -125 0
-17 -161 0
-17 -197 0
-53 -89 0
-53 -125 0
-53 -161 0
-53 -197 0
-89 -125 0
-89 -161 0
-89 -197 0
-125 -161 0
-125 -197 0
-161 -197 0
-18 -54 0
-18 -90 0
-18 -126 0
-18 -162 0
-18 -198 0
-54 -90 0
-54 -126 0
-54 -162 0
-54 -198 0
-90 -126 0
-90 -162 0
-90 -198 0
-126 -162 0
-126 -198 0
-162 -198 0
-19 -55 0
-19 -91 0
-19 -127 0
-19 -163 0
-19 -199 0
-55 -91 0
-55 -127 0
-55 -163 0
-55 -199 0
-91 -127 0
-91 -163 0
-91 -199 0
-127 -163 0
-127 -199 0
-163 -199 0
-20 -56 0
-20 -92 0
-20 -128 0
-20 -164 0
-20 -200 0
-56 -92 0
-56 -128 0
-56 -164 0
-56 -200 0
-92 -128 0
-92 -164 0
-92 -200 0
-128 -164 0
-128 -200 0
-164 -200 0
-21 -57 0
-21 -93 0
-21 -129 0
-21 -165 0
-21 -201 0
-57 -93 0
-57 -129 0
-57 -165 0
-57 -201 0
-93 -129 0
-93 -165 0
-93 -201 0
-129 -165 0
-129 -201 0
-165 -201 0
-22 -58 0
-22 -94 0
-22 -130 0
-22 -166 0
-22 -202 0
-58 -94 0
-58 -130 0
-58 -166 0
-58 -202 0
-94 -130 0
-94 -166 0
-94 -202 0
-130 -166 0
-130 -202 0
-166 -202 0
-23 -59 0
-23 -95 0
-23 -131 0
-23 -167 0
-23 -203 0
-59 -95 0
-59 -131 0
-59 -167 0
-59 -203 0
-95 -131 0
-95 -167 0
-95 -203 0
-131 -167 0
-131 -203 0
-167 -203 0
-24 -60 0
-24 -96 0
-24 -132 0
-24 -168 0
-24 -204 0
-60 -96 0
-60 -132 0
-60 -168 0
-60 -204 0
-96 -132 0
-96 -168 0
-96 -204 0
-132 -168 0
-132 -204 0
-168 -204 0
-25 -61 0
-25 -97 0
-25 -133 0
-25 -169 0
-25 -205 0
-61 -97 0
-61 -133 0
-61 -169 0
-61 -205 0
-97 -133 0
-97 -169 0
-97 -205 0
-133 -169 0
-133 -205 0
-169 -205 0
-26 -62 0
-26 -98 0
-26 -134 0
-26 -170 0
-26 -206 0
-62 -98 0
-62 -134 0
-62 -170 0
-62 -206 0
-98 -134 0
-98 -170 0
-98 -206 0
-134 -170 0
-134 -206 0
-170 -206 0
-27 -63 0
-27 -99 0
-27 -135 0
-27 -171 0
-27 -207 0
-63 -99 0
-63 -135 0
-63 -171 0
-63 -207 0
-99 -135 0
-99 -171 0
-99 -207 0
-135 -171 0
-135 -207 0
-171 -207 0
-28 -64 0
-28 -100 0
-28 -136 0
-28 -172 0
-28 -208 0
-64 -100 0
-64 -136 0
-64 -172 0
-64 -208 0
-100 -136 0
-100 -172 0
-100 -208 0
-136 -172 0
-136 -208 0
-172 -208 0
-29 -65 0
-29 -101 0
-29 -137 0
-29 -173 0
-29 -209 0
-65 -101 0
-65 -137 0
-65 -173 0
-65 -209 0
-101 -137 0
-101 -173 0
-101 -209 0
-137 -173 0
-137 -209 0
-173 -209 0
-30 -66 0
-30 -102 0
-30 -138 0
-30 -174 0
-30 -210 0
-66 -102 0
-66 -138 0
-66 -174 0
-66 -210 0
-102 -138 0
-102 -174 0
-102 -210 0
-138 -174 0
-138 -210 0
-174 -210 0
-31 -67 0
-31 -103 0
-31 -139 0
-31 -175 0
-31 -211 0
-67 -103 0
-67 -139 0
-67 -175 0
-67 -211 0
-103 -139 0
-103 -175 0
-103 -211 0
-139 -175 0
-139 -211 0
-175 -211 0
-32 -68 0
-32 -104 0
-32 -140 0
-32 -176 0
-32 -212 0
-68 -104 0
-68 -140 0
-68 -176 0
-68 -212 0
-104 -140 0
-104 -176 0
-104 -212 0
-140 -176 0
-140 -212 0
-176 -212 0
-33 -69 0
-33 -105 0
-33 -141 0
-33 -177 0
-33 -213 0
-69 -105 0
-69 -141 0
-69 -177 0
-69 -213 0
-105 -141 0
-105 -177 0
-105 -213 0
-141 -177 0
-141 -213 0
-177 -213 0
-34 -70 0
-34 -106 0
-34 -142 0
-34 -178 0
-34 -214 0
-70 -106 0
-70 -142 0
-70 -178 0
-70 -214 0
-106 -142 0
-106 -178 0
-106 -214 0
-142 -178 0
-142 -214 0
-178 -214 0
-35 -71 0
-35 -107 0
-35 -143 0
-35 -179 0
-35 -215 0
-71 -107 0
-71 -143 0
-71 -179 0
-71 -215 0
-107 -143 0
-107 -179 0
-107 -215 0
-143 -179 0
-143 -215 0
-179 -215 0
-36 -72 0
-36 -108 0
-36 -144 0
-36 -180 0
-36 -216 0
-72 -108 0
-72 -144 0
-72 -180 0
-72 -216 0
-108 -144 0
-108 -180 0
-108 -216 0
-144 -180 0
-144 -216 0
-180 -216 0
